20 10
84 65 80 75 55 84 67 65 84 64
74 70 75 80 73 57 77 76 86 91
94 90 90 98 84 94 92 93 96 91
93 96 97 88 89 97 96 98 93 98
73 81 65 46 78 63 59 52 56 71
23 25 16 8 11 12 31 15 32 16
4 7 17 14 6 5 18 9 16 8
3 2 3 3 2 3 2 2 2 3
46 37 59 57 51 56 62 67 73 62
25 38 12 32 17 32 25 25 22 53
24 29 31 31 19 19 34 11 19 47
69 46 33 28 40 22 51 44 40 16
92 83 66 73 75 77 68 89 63 83
28 12 7 12 8 13 13 6 12 4
40 35 45 60 55 28 49 48 32 29
65 65 78 86 53 71 77 79 66 65
52 66 59 45 57 68 51 57 52 49
2 3 3 2 2 3 4 4 2 3
53 59 53 55 47 44 59 56 52 54
97 90 96 95 92 93 88 92 90 97
